assets/logs/15_8x8_clingo/15_8x8_clingo.solution.log

---------------------------------
|  0| 27| 21| 35| 32|  3| 40|  0|
---------------------------------
| 19| 33|  2| 25|  0| 37| 34|  1|
---------------------------------
|  4| 23| 29| 30|  5| 38| 24| 42|
---------------------------------
| 31| 17| 47|  0| 39| 28|  7| 36|
---------------------------------
| 45|  6| 41|  0|  9| 22| 44| 26|
---------------------------------
| 15| 49| 10|  0| 46|  0| 14| 20|
---------------------------------
|  8| 43|  0| 11| 12| 18| 48|  0|
---------------------------------
| 51| 13|  0|  0| 50|  0|  0| 16|
---------------------------------

| n = 8 | k = 10 | coverage = 60, 93.75%
 Time 300.001
 Name 15_8x8_clingo

