assets/logs/15_8x8_clingo/15_8x8_clingo.log
clingo version 5.4.0
Reading from ...ets/logs/15_8x8_clingo/knights_tour.lp ...
Solving...
Answer: 1
occ(1,7,3) occ(1,5,4) occ(1,4,4) occ(1,8,6) occ(1,2,5) occ(1,6,4) occ(1,8,7) occ(1,6,6) occ(1,8,4) occ(1,8,3) occ(2,2,8) occ(3,2,3) coverage(6)
Optimization: -6
Answer: 2
occ(1,7,3) occ(1,5,4) occ(1,4,4) occ(1,8,6) occ(1,2,5) occ(1,6,4) occ(1,8,7) occ(1,6,6) occ(1,8,4) occ(1,8,3) occ(2,2,8) occ(3,2,3) coverage(22) occ(5,1,5) occ(12,1,8) occ(25,1,3) occ(59,1,2) occ(7,2,7) occ(10,2,6) occ(23,2,1) occ(61,2,4) occ(4,3,6) occ(14,3,7) occ(20,3,8) occ(27,3,2) occ(33,3,5) occ(53,3,3) occ(57,3,1) occ(8,4,5) occ(9,4,8) occ(18,4,6) occ(21,4,2) occ(31,4,3) occ(35,4,7) occ(51,4,1) occ(6,5,7) occ(11,5,6) occ(16,5,8) occ(17,5,3) occ(29,5,1) occ(45,5,5) occ(55,5,2) occ(15,6,5) occ(19,6,1) occ(37,6,8) occ(43,6,7) occ(49,6,2) occ(13,7,7) occ(39,7,6) occ(47,7,4) occ(41,8,8)
Optimization: -22
Answer: 3
occ(1,7,3) occ(1,5,4) occ(1,4,4) occ(1,8,6) occ(1,2,5) occ(1,6,4) occ(1,8,7) occ(1,6,6) occ(1,8,4) occ(1,8,3) occ(2,2,8) occ(3,2,3) coverage(24) occ(5,1,5) occ(12,1,8) occ(22,1,7) occ(25,1,3) occ(59,1,2) occ(7,2,7) occ(10,2,6) occ(23,2,1) occ(61,2,4) occ(4,3,6) occ(14,3,7) occ(20,3,8) occ(27,3,2) occ(33,3,5) occ(53,3,3) occ(57,3,1) occ(8,4,5) occ(9,4,8) occ(18,4,6) occ(21,4,2) occ(31,4,3) occ(35,4,7) occ(51,4,1) occ(6,5,7) occ(11,5,6) occ(16,5,8) occ(17,5,3) occ(29,5,1) occ(45,5,5) occ(55,5,2) occ(15,6,5) occ(19,6,1) occ(37,6,8) occ(43,6,7) occ(49,6,2) occ(13,7,7) occ(39,7,6) occ(47,7,4) occ(41,8,8)
Optimization: -24
Answer: 4
occ(1,7,3) occ(1,5,4) occ(1,4,4) occ(1,8,6) occ(1,2,5) occ(1,6,4) occ(1,8,7) occ(1,6,6) occ(1,8,4) occ(1,8,3) occ(2,2,8) occ(3,2,3) coverage(26) occ(4,1,6) occ(9,1,3) occ(12,1,8) occ(27,1,4) occ(59,1,2) occ(6,2,4) occ(7,2,1) occ(10,2,6) occ(25,2,2) occ(11,3,4) occ(14,3,7) occ(29,3,5) occ(43,3,6) occ(53,3,3) occ(57,3,1) occ(5,4,2) occ(8,4,5) occ(13,4,6) occ(23,4,3) occ(31,4,7) occ(41,4,8) occ(51,4,1) occ(16,5,8) occ(17,5,3) occ(20,5,6) occ(21,5,1) occ(45,5,5) occ(55,5,2) occ(15,6,5) occ(24,6,3) occ(33,6,8) occ(39,6,7) occ(49,6,2) occ(18,7,7) occ(19,7,2) occ(22,7,5) occ(35,7,6) occ(47,7,4) occ(37,8,8)
Optimization: -26
Answer: 5
occ(1,7,3) occ(1,5,4) occ(1,4,4) occ(1,8,6) occ(1,2,5) occ(1,6,4) occ(1,8,7) occ(1,6,6) occ(1,8,4) occ(1,8,3) occ(2,2,8) occ(3,2,3) coverage(28) occ(4,1,6) occ(5,1,1) occ(9,1,3) occ(12,1,8) occ(24,1,4) occ(59,1,2) occ(6,2,4) occ(10,2,6) occ(20,2,7) occ(26,2,2) occ(7,3,2) occ(11,3,4) occ(14,3,7) occ(22,3,5) occ(43,3,6) occ(53,3,3) occ(57,3,1) occ(8,4,5) occ(13,4,2) occ(18,4,6) occ(51,4,1) occ(16,5,8) occ(17,5,3) occ(21,5,1) occ(35,5,6) occ(41,5,7) occ(45,5,5) occ(55,5,2) occ(15,6,1) occ(23,6,3) occ(27,6,7) occ(33,6,8) occ(39,6,5) occ(49,6,2) occ(19,7,2) occ(25,7,5) occ(31,7,6) occ(37,7,7) occ(47,7,4) occ(29,8,8)
Optimization: -28
Answer: 6
occ(1,7,3) occ(1,5,4) occ(1,4,4) occ(1,8,6) occ(1,2,5) occ(1,6,4) occ(1,8,7) occ(1,6,6) occ(1,8,4) occ(1,8,3) occ(2,2,8) occ(3,2,3) coverage(34) occ(4,1,6) occ(5,1,5) occ(8,1,4) occ(32,1,8) occ(35,1,2) occ(7,2,7) occ(12,2,1) occ(21,2,6) occ(25,2,2) occ(33,2,4) occ(6,3,5) occ(10,3,3) occ(19,3,8) occ(23,3,4) occ(30,3,7) occ(37,3,1) occ(9,4,8) occ(13,4,6) occ(14,4,2) occ(27,4,1) occ(31,4,5) occ(39,4,3) occ(17,5,7) occ(18,5,5) occ(24,5,6) occ(28,5,8) occ(29,5,3) occ(41,5,1) occ(11,6,7) occ(15,6,5) occ(16,6,3) occ(22,6,8) occ(20,7,6) occ(26,7,7) occ(43,7,2)
Optimization: -34
Answer: 7
occ(1,7,3) occ(1,5,4) occ(1,4,4) occ(1,8,6) occ(1,2,5) occ(1,6,4) occ(1,8,7) occ(1,6,6) occ(1,8,4) occ(1,8,3) occ(2,2,8) occ(3,2,3) coverage(36) occ(4,1,6) occ(5,1,5) occ(8,1,4) occ(9,1,7) occ(32,1,8) occ(35,1,2) occ(12,2,1) occ(25,2,2) occ(33,2,4) occ(34,2,6) occ(6,3,5) occ(7,3,6) occ(10,3,3) occ(11,3,8) occ(23,3,4) occ(30,3,7) occ(37,3,1) occ(14,4,2) occ(21,4,6) occ(26,4,8) occ(27,4,1) occ(31,4,5) occ(39,4,3) occ(13,5,7) occ(18,5,5) occ(19,5,8) occ(28,5,6) occ(29,5,3) occ(41,5,1) occ(15,6,5) occ(16,6,3) occ(24,6,7) occ(17,7,7) occ(20,7,6) occ(43,7,2) occ(22,8,8)
Optimization: -36
Answer: 8
occ(1,7,3) occ(1,5,4) occ(1,4,4) occ(1,8,6) occ(1,2,5) occ(1,6,4) occ(1,8,7) occ(1,6,6) occ(1,8,4) occ(1,8,3) occ(2,2,8) occ(3,2,3) coverage(44) occ(4,1,6) occ(5,1,5) occ(8,1,4) occ(13,1,7) occ(35,1,2) occ(36,1,8) occ(7,2,7) occ(12,2,1) occ(25,2,2) occ(33,2,4) occ(34,2,6) occ(6,3,5) occ(10,3,3) occ(11,3,6) occ(15,3,8) occ(23,3,4) occ(37,3,1) occ(38,3,7) occ(9,4,8) occ(14,4,2) occ(21,4,6) occ(27,4,1) occ(31,4,5) occ(32,4,7) occ(39,4,3) occ(17,5,7) occ(18,5,5) occ(28,5,6) occ(29,5,3) occ(40,5,8) occ(41,5,1) occ(16,6,3) occ(19,6,5) occ(24,6,7) occ(30,6,8) occ(20,7,6) occ(26,7,5) occ(42,7,7) occ(43,7,2) occ(22,8,8)
Optimization: -44
Answer: 9
occ(1,7,3) occ(1,5,4) occ(1,4,4) occ(1,8,6) occ(1,2,5) occ(1,6,4) occ(1,8,7) occ(1,6,6) occ(1,8,4) occ(1,8,3) occ(2,2,8) occ(3,2,3) coverage(46) occ(4,1,6) occ(5,1,5) occ(8,1,4) occ(25,1,3) occ(31,1,2) occ(37,1,7) occ(7,2,7) occ(10,2,2) occ(27,2,1) occ(33,2,4) occ(41,2,6) occ(6,3,5) occ(18,3,7) occ(23,3,2) occ(29,3,3) occ(35,3,6) occ(39,3,8) occ(43,3,4) occ(9,4,6) occ(12,4,1) occ(13,4,8) occ(16,4,5) occ(32,4,7) occ(36,4,3) occ(45,4,2) occ(14,5,3) occ(15,5,6) occ(20,5,8) occ(21,5,1) occ(26,5,7) occ(34,5,5) occ(11,6,7) occ(19,6,3) occ(24,6,5) occ(30,6,8) occ(38,6,2) occ(44,6,1) occ(17,7,5) occ(22,7,7) occ(28,7,6) occ(40,7,4) occ(42,8,2)
Optimization: -46
Answer: 10
occ(1,7,3) occ(1,5,4) occ(1,4,4) occ(1,8,6) occ(1,2,5) occ(1,6,4) occ(1,8,7) occ(1,6,6) occ(1,8,4) occ(1,8,3) occ(2,2,8) occ(3,2,3) coverage(47) occ(4,1,6) occ(5,1,5) occ(8,1,4) occ(25,1,3) occ(31,1,2) occ(37,1,7) occ(7,2,7) occ(10,2,2) occ(27,2,1) occ(33,2,4) occ(41,2,6) occ(6,3,5) occ(18,3,7) occ(23,3,2) occ(29,3,3) occ(35,3,6) occ(39,3,8) occ(42,3,1) occ(43,3,4) occ(9,4,6) occ(12,4,1) occ(13,4,8) occ(16,4,5) occ(32,4,7) occ(40,4,3) occ(45,4,2) occ(14,5,3) occ(15,5,6) occ(20,5,8) occ(21,5,1) occ(26,5,7) occ(34,5,5) occ(44,5,2) occ(11,6,7) occ(19,6,3) occ(24,6,5) occ(30,6,8) occ(38,6,2) occ(17,7,5) occ(22,7,7) occ(28,7,6) occ(36,7,4) occ(46,7,1)
Optimization: -47
Answer: 11
occ(1,7,3) occ(1,5,4) occ(1,4,4) occ(1,8,6) occ(1,2,5) occ(1,6,4) occ(1,8,7) occ(1,6,6) occ(1,8,4) occ(1,8,3) occ(2,2,8) occ(3,2,3) coverage(48) occ(4,1,6) occ(5,1,5) occ(8,1,4) occ(25,1,3) occ(31,1,2) occ(37,1,7) occ(7,2,7) occ(10,2,2) occ(27,2,1) occ(33,2,4) occ(41,2,6) occ(6,3,5) occ(18,3,7) occ(23,3,2) occ(29,3,3) occ(35,3,6) occ(39,3,8) occ(42,3,1) occ(43,3,4) occ(9,4,6) occ(12,4,1) occ(13,4,8) occ(16,4,5) occ(32,4,7) occ(40,4,3) occ(45,4,2) occ(14,5,3) occ(15,5,6) occ(20,5,8) occ(21,5,1) occ(26,5,7) occ(34,5,5) occ(44,5,2) occ(11,6,7) occ(19,6,3) occ(24,6,5) occ(30,6,8) occ(38,6,2) occ(47,6,1) occ(17,7,5) occ(22,7,7) occ(28,7,6) occ(36,7,4) occ(46,7,1) occ(49,8,2)
Optimization: -48
Answer: 12
occ(1,7,3) occ(1,5,4) occ(1,4,4) occ(1,8,6) occ(1,2,5) occ(1,6,4) occ(1,8,7) occ(1,6,6) occ(1,8,4) occ(1,8,3) occ(2,2,8) occ(3,2,3) coverage(49) occ(5,1,5) occ(17,1,7) occ(24,1,6) occ(28,1,4) occ(38,1,3) occ(44,1,2) occ(7,2,7) occ(10,2,6) occ(30,2,2) occ(36,2,1) occ(42,2,4) occ(8,3,4) occ(15,3,8) occ(19,3,6) occ(22,3,7) occ(26,3,5) occ(34,3,3) occ(40,3,2) occ(46,3,1) occ(4,4,7) occ(9,4,8) occ(12,4,5) occ(13,4,6) occ(32,4,1) occ(33,4,2) occ(43,4,3) occ(6,5,5) occ(14,5,3) occ(20,5,8) occ(21,5,7) occ(27,5,6) occ(45,5,1) occ(48,5,2) occ(11,6,7) occ(16,6,5) occ(25,6,8) occ(31,6,3) occ(35,6,1) occ(41,6,2) occ(18,7,7) occ(23,7,6) occ(29,7,5) occ(39,7,4) occ(47,7,2) occ(37,8,2)
Optimization: -49
Answer: 13
occ(1,7,3) occ(1,5,4) occ(1,4,4) occ(1,8,6) occ(1,2,5) occ(1,6,4) occ(1,8,7) occ(1,6,6) occ(1,8,4) occ(1,8,3) occ(2,2,8) occ(3,2,3) coverage(50) occ(5,1,5) occ(9,1,7) occ(23,1,6) occ(24,1,2) occ(29,1,3) occ(36,1,8) occ(15,2,7) occ(25,2,4) occ(31,2,1) occ(34,2,6) occ(45,2,2) occ(7,3,6) occ(11,3,8) occ(21,3,5) occ(22,3,1) occ(26,3,3) occ(27,3,2) occ(32,3,4) occ(38,3,7) occ(4,4,7) occ(13,4,6) occ(17,4,8) occ(28,4,5) occ(33,4,2) occ(43,4,3) occ(47,4,1) occ(19,5,6) occ(20,5,2) occ(30,5,3) occ(40,5,8) occ(41,5,5) occ(46,5,7) occ(6,6,8) occ(12,6,7) occ(16,6,3) occ(35,6,1) occ(44,6,5) occ(49,6,2) occ(8,7,6) occ(14,7,5) occ(18,7,1) occ(39,7,4) occ(42,7,7) occ(48,7,8) occ(10,8,8) occ(37,8,2) occ(51,8,1)
Optimization: -50
Answer: 14
occ(1,7,3) occ(1,5,4) occ(1,4,4) occ(1,8,6) occ(1,2,5) occ(1,6,4) occ(1,8,7) occ(1,6,6) occ(1,8,4) occ(1,8,3) occ(2,2,8) occ(3,2,3) coverage(51) occ(4,1,6) occ(5,1,1) occ(8,1,4) occ(11,1,2) occ(26,1,3) occ(30,1,5) occ(35,1,8) occ(9,2,4) occ(10,2,2) occ(24,2,1) occ(37,2,6) occ(44,2,7) occ(6,3,5) occ(7,3,2) occ(13,3,1) occ(28,3,4) occ(29,3,3) occ(32,3,6) occ(33,3,7) occ(12,4,3) occ(22,4,2) occ(27,4,1) occ(31,4,5) occ(39,4,7) occ(42,4,6) occ(46,4,8) occ(15,5,2) occ(21,5,1) occ(25,5,3) occ(34,5,7) occ(40,5,8) occ(41,5,5) occ(48,5,6) occ(14,6,2) occ(19,6,3) occ(20,6,1) occ(36,6,5) occ(47,6,7) occ(50,6,8) occ(16,7,4) occ(17,7,1) occ(23,7,2) occ(38,7,7) occ(43,7,6) occ(49,7,5) occ(18,8,2) occ(45,8,8)
Optimization: -51
Answer: 15
occ(1,7,3) occ(1,5,4) occ(1,4,4) occ(1,8,6) occ(1,2,5) occ(1,6,4) occ(1,8,7) occ(1,6,6) occ(1,8,4) occ(1,8,3) occ(2,2,8) occ(3,2,3) coverage(52) occ(4,1,6) occ(22,1,3) occ(28,1,2) occ(33,1,5) occ(36,1,4) occ(41,1,7) occ(20,2,1) occ(26,2,4) occ(34,2,2) occ(35,2,7) occ(38,2,6) occ(5,3,1) occ(6,3,5) occ(24,3,2) occ(25,3,7) occ(30,3,3) occ(31,3,4) occ(39,3,6) occ(43,3,8) occ(8,4,7) occ(18,4,2) occ(29,4,6) occ(32,4,1) occ(37,4,8) occ(40,4,5) occ(48,4,3) occ(7,5,2) occ(10,5,5) occ(23,5,6) occ(27,5,8) occ(42,5,3) occ(45,5,7) occ(46,5,1) occ(11,6,3) occ(15,6,7) occ(16,6,1) occ(21,6,8) occ(47,6,5) occ(50,6,2) occ(9,7,1) occ(12,7,4) occ(13,7,5) occ(19,7,6) occ(44,7,2) occ(49,7,7) occ(14,8,2) occ(17,8,8) occ(51,8,5)
Optimization: -52
Answer: 16
occ(1,7,3) occ(1,5,4) occ(1,4,4) occ(1,8,6) occ(1,2,5) occ(1,6,4) occ(1,8,7) occ(1,6,6) occ(1,8,4) occ(1,8,3) occ(2,2,8) occ(3,2,3) coverage(53) occ(4,1,6) occ(22,1,3) occ(28,1,2) occ(33,1,5) occ(36,1,4) occ(41,1,7) occ(20,2,1) occ(26,2,4) occ(34,2,2) occ(35,2,7) occ(38,2,6) occ(5,3,1) occ(6,3,5) occ(24,3,2) occ(25,3,7) occ(30,3,3) occ(31,3,4) occ(39,3,6) occ(43,3,8) occ(8,4,7) occ(18,4,2) occ(29,4,6) occ(32,4,1) occ(37,4,8) occ(40,4,5) occ(48,4,3) occ(7,5,2) occ(10,5,5) occ(23,5,6) occ(27,5,8) occ(42,5,3) occ(45,5,7) occ(46,5,1) occ(11,6,3) occ(15,6,7) occ(16,6,1) occ(21,6,8) occ(47,6,5) occ(50,6,2) occ(9,7,1) occ(12,7,4) occ(13,7,5) occ(19,7,6) occ(44,7,2) occ(49,7,7) occ(14,8,2) occ(17,8,8) occ(51,8,5) occ(52,8,1)
Optimization: -53
*** Info : (clingo): INTERRUPTED by signal!
SATISFIABLE

TIME LIMIT   : 1
Models       : 16+
  Optimum    : unknown
Optimization : -53
Calls        : 1
Time         : 300.000s (Solving: 299.71s 1st Model: 0.00s Unsat: 0.00s)
CPU Time     : 300.001s
